100 89044

 891 637
623 188
991 171
820 871
45 420
321 655
572 505
722 728
551 480
787 288
283 364
184 860
54 469
574 214
689 935
327 797
614 56
53 999
100 695
702 161
369 238
672 693
832 780
853 240
173 257
487 308
734 599
774 172
785 105
229 679
193 780
591 501
742 364
320 433
105 389
717 960
300 769
167 209
148 385
315 545
593 613
359 469
21 811
97 768
291 506
660 855
99 752
561 779
120 957
212 267
173 268
68 889
672 773
464 927
832 64
99 628
145 145
307 504
766 156
306 129
409 13
302 631
81 360
940 106
549 323
788 169
659 942
515 321
90 334
643 840
156 648
415 711
630 637
783 947
686 208
672 990
150 831
347 589
43 663
720 649
953 59
265 219
88 962
476 535
857 379
552 763
47 525
975 14
829 737
132 733
922 166
451 957
372 224
462 458
835 115
660 604
60 376
958 354
148 827
746 10
